(set-logic QF_S)
(declare-fun var0 () String)
(declare-fun var1 () String)
(declare-fun var2 () String)
(declare-fun var3 () String)
(declare-fun var4 () String)
(declare-fun var5 () String)
(declare-fun var6 () String)
(declare-fun var7 () String)
(declare-fun var8 () String)
(declare-fun var9 () String)
(declare-fun var10 () String)
(declare-fun var11 () String)
(declare-fun var12 () String)
(declare-fun var13 () String)
(declare-fun var14 () String)
(declare-fun var15 () String)
(declare-fun var16 () String)
(declare-fun var17 () String)
(declare-fun var18 () String)
(declare-fun var19 () String)
(declare-fun var20 () String)
(declare-fun var21 () String)
(declare-fun var22 () String)
(declare-fun var23 () String)
(declare-fun var24 () String)
(declare-fun var25 () String)
(declare-fun var26 () String)
(declare-fun var27 () String)
(declare-fun var28 () String)
(declare-fun var29 () String)
(declare-fun var30 () String)
(declare-fun var31 () String)
(declare-fun var32 () String)
(declare-fun var33 () String)
(declare-fun var34 () String)
(declare-fun var35 () String)
(declare-fun var36 () String)
(declare-fun var37 () String)
(declare-fun var38 () String)
(declare-fun var39 () String)
(declare-fun var40 () String)
(declare-fun var41 () String)
(declare-fun var42 () String)
(declare-fun var43 () String)
(declare-fun var44 () String)
(declare-fun var45 () String)
(declare-fun var46 () String)
(declare-fun var47 () String)
(declare-fun var48 () String)
(declare-fun var49 () String)
(declare-fun var50 () String)
(declare-fun var51 () String)
(declare-fun var52 () String)
(declare-fun var53 () String)
(declare-fun var54 () String)
(declare-fun var55 () String)
(declare-fun var56 () String)
(declare-fun var57 () String)
(declare-fun var58 () String)
(declare-fun var59 () String)
(declare-fun var60 () String)
(assert (= var0 (Concat var1 var2)))
(assert (= var2 (Concat var3 var4)))
(assert (= var4 (Concat var5 var6)))
(assert (= var6 (Concat var7 var8)))
(assert (= var8 (Concat var9 var10)))
(assert (= var10 (Concat var11 var12)))
(assert (= var12 (Concat var13 var14)))
(assert (= var14 (Concat var15 var16)))
(assert (= var16 (Concat var17 var18)))
(assert (= var18 (Concat var19 var20)))
(assert (= var20 (Concat var21 var22)))
(assert (= var22 (Concat var23 var24)))
(assert (= var24 (Concat var25 var26)))
(assert (= var26 (Concat var27 var28)))
(assert (= var28 (Concat var29 var30)))
(assert (= var30 (Concat var31 var32)))
(assert (= var32 (Concat var33 var34)))
(assert (= var34 (Concat var35 var36)))
(assert (= var36 (Concat var37 var38)))
(assert (= var38 (Concat var39 var40)))
(assert (= var40 (Concat var41 var42)))
(assert (= var42 (Concat var43 var44)))
(assert (= var44 (Concat var45 var46)))
(assert (= var46 (Concat var47 var48)))
(assert (= var48 (Concat var49 var50)))
(assert (= var50 (Concat var51 var52)))
(assert (= var52 (Concat var53 var54)))
(assert (= var54 (Concat var55 var56)))
(assert (= var56 (Concat var57 var58)))
(assert (= var58 (Concat var59 var60)))
(assert (= var0 "solution"))
(assert (= "." (CharAt var15 258)))
(assert (= ";" (CharAt var50 697)))
(assert (= "g" (CharAt var55 189)))
(assert (= "?" (CharAt var44 887)))
(assert (= "V" (CharAt var46 637)))
(assert (= "v" (CharAt var59 44)))
(assert (= "'" (CharAt var0 792)))
(assert (= "j" (CharAt var39 727)))
(assert (= "d" (CharAt var50 189)))
(assert (= "c" (CharAt var46 767)))
(assert (= "t" (CharAt var16 610)))
(assert (= "r" (CharAt var6 376)))
(assert (= "I" (CharAt var43 818)))
(assert (= "r" (CharAt var38 657)))
(assert (= "a" (CharAt var25 527)))
(assert (= "/" (CharAt var20 963)))
(assert (= "B" (CharAt var6 175)))
(assert (= "M" (CharAt var52 128)))
(assert (= "M" (CharAt var6 938)))
(assert (= "D" (CharAt var14 426)))
(assert (= "0" (CharAt var2 938)))
(assert (= "[" (CharAt var1 227)))
(assert (= "\"" (CharAt var31 825)))
(assert (= "s" (CharAt var37 861)))
(assert (= "t" (CharAt var22 531)))
(assert (= "^" (CharAt var41 993)))
(assert (= "3" (CharAt var46 917)))
(assert (= "8" (CharAt var4 139)))
(assert (= "." (CharAt var40 77)))
(assert (= "&" (CharAt var44 915)))
(assert (= "Q" (CharAt var17 530)))
(assert (= "G" (CharAt var26 755)))
(assert (= "_" (CharAt var29 822)))
(assert (= "|" (CharAt var27 567)))
(assert (= "B" (CharAt var49 783)))
(assert (= "[" (CharAt var30 357)))
(assert (= "}" (CharAt var43 545)))
(assert (= "." (CharAt var52 488)))
(assert (= "f" (CharAt var46 432)))
(assert (= "i" (CharAt var44 641)))
(assert (= "\"" (CharAt var59 755)))
(assert (= "N" (CharAt var56 996)))
(assert (= "c" (CharAt var49 778)))
(assert (= "$" (CharAt var8 990)))
(assert (= "q" (CharAt var44 8)))
(assert (= "-" (CharAt var18 628)))
(assert (= "#" (CharAt var51 544)))
(assert (= "4" (CharAt var51 742)))
(assert (= "Z" (CharAt var31 86)))
(assert (= "a" (CharAt var28 605)))
(assert (= "f" (CharAt var54 161)))
(assert (= "`" (CharAt var32 25)))
(assert (= "i" (CharAt var28 932)))
(assert (= "]" (CharAt var48 272)))
(assert (= "F" (CharAt var34 15)))
(assert (= "L" (CharAt var7 740)))
(assert (= "V" (CharAt var29 466)))
(assert (= "8" (CharAt var40 942)))
(assert (= "W" (CharAt var26 833)))
(assert (= "%" (CharAt var49 565)))
(assert (= "@" (CharAt var33 706)))
(assert (= "k" (CharAt var16 593)))
(assert (= "~" (CharAt var3 207)))
(assert (= "B" (CharAt var32 18)))
(assert (= "K" (CharAt var11 940)))
(assert (= ":" (CharAt var38 450)))
(assert (= "0" (CharAt var17 536)))
(assert (= "z" (CharAt var42 169)))
(assert (= "[" (CharAt var42 583)))
(assert (= "l" (CharAt var51 588)))
(assert (= "}" (CharAt var23 945)))
(assert (= "D" (CharAt var9 981)))
(assert (= "r" (CharAt var32 563)))
(assert (= "Q" (CharAt var39 194)))
(assert (= "L" (CharAt var6 358)))
(assert (= "J" (CharAt var21 425)))
(assert (= "S" (CharAt var29 337)))
(assert (= "E" (CharAt var13 598)))
(assert (= "G" (CharAt var54 37)))
(assert (= "*" (CharAt var8 530)))
(assert (= "x" (CharAt var33 364)))
(assert (= ")" (CharAt var28 361)))
(assert (= "P" (CharAt var42 382)))
(assert (= "6" (CharAt var55 483)))
(assert (= "3" (CharAt var59 541)))
(assert (= "~" (CharAt var52 473)))
(assert (= "p" (CharAt var60 812)))
(assert (= "}" (CharAt var17 606)))
(assert (= "y" (CharAt var38 362)))
(assert (= "t" (CharAt var19 322)))
(assert (= "l" (CharAt var25 48)))
(assert (= "\"" (CharAt var54 228)))
(assert (= "`" (CharAt var35 719)))
(assert (= "z" (CharAt var50 875)))
(assert (= "f" (CharAt var46 39)))
(assert (= "(" (CharAt var27 106)))
(assert (= "@" (CharAt var14 776)))
(assert (= "k" (CharAt var25 464)))
(assert (= "X" (CharAt var19 793)))
(assert (= "i" (CharAt var59 598)))
(assert (= "\"" (CharAt var51 562)))
(assert (= "K" (CharAt var58 527)))
(assert (= "]" (CharAt var16 445)))
(assert (= "7" (CharAt var15 245)))
(assert (= "G" (CharAt var5 59)))
(assert (= "$" (CharAt var3 436)))
(assert (= "N" (CharAt var49 239)))
(assert (= "}" (CharAt var60 236)))
(assert (= "N" (CharAt var34 294)))
(assert (= "x" (CharAt var40 519)))
(assert (= "U" (CharAt var36 227)))
(assert (= "1" (CharAt var25 852)))
(assert (= "7" (CharAt var35 399)))
(assert (= "\\" (CharAt var36 517)))
(assert (= "x" (CharAt var54 636)))
(assert (= ">" (CharAt var20 532)))
(assert (= "k" (CharAt var33 232)))
(assert (= "m" (CharAt var54 653)))
(assert (= "M" (CharAt var9 888)))
(assert (= "%" (CharAt var18 510)))
(assert (= "0" (CharAt var37 345)))
(assert (= "W" (CharAt var4 426)))
(assert (= "J" (CharAt var12 527)))
(assert (= "v" (CharAt var20 660)))
(assert (= "," (CharAt var56 107)))
(assert (= "N" (CharAt var57 982)))
(assert (= "b" (CharAt var47 671)))
(assert (= "K" (CharAt var17 415)))
(assert (= "'" (CharAt var56 148)))
(assert (= "e" (CharAt var38 77)))
(assert (= "?" (CharAt var43 110)))
(assert (= "%" (CharAt var22 273)))
(assert (= "_" (CharAt var58 493)))
(assert (= "_" (CharAt var48 54)))
(assert (= "w" (CharAt var17 281)))
(assert (= "," (CharAt var12 839)))
(assert (= "~" (CharAt var33 665)))
(assert (= "W" (CharAt var31 282)))
(assert (= "x" (CharAt var32 838)))
(assert (= "e" (CharAt var59 132)))
(assert (= "X" (CharAt var8 855)))
(assert (= "]" (CharAt var1 331)))
(assert (= "M" (CharAt var55 937)))
(assert (= ")" (CharAt var11 622)))
(assert (= "a" (CharAt var50 926)))
(assert (= "i" (CharAt var16 553)))
(assert (= "q" (CharAt var24 750)))
(assert (= "+" (CharAt var35 540)))
(assert (= "i" (CharAt var53 141)))
(assert (= "0" (CharAt var38 147)))
(assert (= "R" (CharAt var17 193)))
(assert (= "u" (CharAt var14 660)))
(assert (= "'" (CharAt var60 53)))
(assert (= "V" (CharAt var24 373)))
(assert (= "x" (CharAt var40 369)))
(assert (= "K" (CharAt var18 492)))
(assert (= "C" (CharAt var60 916)))
(assert (= "e" (CharAt var38 273)))
(assert (= "|" (CharAt var52 930)))
(assert (= "@" (CharAt var2 356)))
(assert (= "O" (CharAt var25 927)))
(assert (= "0" (CharAt var59 165)))
(assert (= "\\" (CharAt var47 852)))
(assert (= "K" (CharAt var20 916)))
(assert (= "<" (CharAt var40 994)))
(assert (= "q" (CharAt var21 10)))
(assert (= "w" (CharAt var14 248)))
(assert (= "q" (CharAt var52 510)))
(assert (= "b" (CharAt var58 851)))
(assert (= "T" (CharAt var45 48)))
(assert (= "o" (CharAt var44 68)))
(assert (= "S" (CharAt var40 587)))
(assert (= "\\" (CharAt var18 425)))
(assert (= "+" (CharAt var59 954)))
(assert (= "?" (CharAt var33 531)))
(assert (= "E" (CharAt var33 924)))
(assert (= "1" (CharAt var34 891)))
(assert (= "O" (CharAt var8 532)))
(assert (= "x" (CharAt var30 782)))
(assert (= ";" (CharAt var28 504)))
(assert (= "3" (CharAt var53 398)))
(assert (= ";" (CharAt var22 423)))
(assert (= "u" (CharAt var43 884)))
(assert (= "#" (CharAt var20 927)))
(assert (= "$" (CharAt var12 212)))
(assert (= "Y" (CharAt var55 512)))
(assert (= "W" (CharAt var29 180)))
(assert (= "m" (CharAt var49 371)))
(assert (= "u" (CharAt var24 766)))
(assert (= "U" (CharAt var24 780)))
(assert (= "i" (CharAt var1 739)))
(assert (= "@" (CharAt var8 188)))
(assert (= "6" (CharAt var0 872)))
(assert (= "W" (CharAt var27 862)))
(assert (= "|" (CharAt var31 305)))
(assert (= "Y" (CharAt var29 962)))
(assert (= "`" (CharAt var35 321)))
(assert (= "Y" (CharAt var25 650)))
(assert (= "K" (CharAt var16 208)))
(assert (= "E" (CharAt var9 592)))
(assert (= "k" (CharAt var26 424)))
(assert (= ">" (CharAt var15 88)))
(assert (= "t" (CharAt var0 415)))
(assert (= "0" (CharAt var55 393)))
(assert (= "k" (CharAt var22 168)))
(assert (= "U" (CharAt var2 511)))
(assert (= "p" (CharAt var60 395)))
(assert (= "(" (CharAt var42 591)))
(assert (= "1" (CharAt var12 301)))
(assert (= "!" (CharAt var2 547)))
(assert (= "D" (CharAt var30 73)))
(assert (= "@" (CharAt var41 981)))
(assert (= "7" (CharAt var46 826)))
(assert (= "X" (CharAt var50 710)))
(assert (= "&" (CharAt var56 417)))
(assert (= "Y" (CharAt var53 275)))
(assert (= "_" (CharAt var17 752)))
(assert (= "Y" (CharAt var1 489)))
(assert (= "<" (CharAt var59 946)))
(assert (= "k" (CharAt var33 251)))
(assert (= "~" (CharAt var31 450)))
(assert (= "!" (CharAt var18 68)))
(assert (= "0" (CharAt var16 622)))
(assert (= "]" (CharAt var7 952)))
(assert (= "t" (CharAt var45 216)))
(assert (= "D" (CharAt var6 640)))
(assert (= "~" (CharAt var11 419)))
(assert (= "$" (CharAt var15 599)))
(assert (= "e" (CharAt var36 372)))
(assert (= "8" (CharAt var7 385)))
(assert (= "R" (CharAt var48 47)))
(assert (= "\\" (CharAt var51 469)))
(assert (= ":" (CharAt var1 197)))
(assert (= "M" (CharAt var51 851)))
(assert (= "4" (CharAt var11 624)))
(assert (= "$" (CharAt var43 675)))
(assert (= "+" (CharAt var37 566)))
(assert (= "|" (CharAt var46 25)))
(assert (= "{" (CharAt var7 919)))
(assert (= "P" (CharAt var21 147)))
(assert (= "F" (CharAt var43 389)))
(assert (= "(" (CharAt var37 229)))
(assert (= "x" (CharAt var39 241)))
(assert (= "N" (CharAt var0 225)))
(assert (= "f" (CharAt var53 929)))
(assert (= "u" (CharAt var25 717)))
(assert (= "3" (CharAt var10 79)))
(assert (= "l" (CharAt var4 976)))
(assert (= "D" (CharAt var51 543)))
(assert (= "-" (CharAt var5 536)))
(assert (= "E" (CharAt var53 811)))
(assert (= "^" (CharAt var53 242)))
(assert (= "_" (CharAt var27 564)))
(assert (= "r" (CharAt var29 936)))
(assert (= "A" (CharAt var58 466)))
(assert (= "T" (CharAt var22 807)))
(assert (= "-" (CharAt var2 599)))
(assert (= "?" (CharAt var48 350)))
(assert (= "." (CharAt var17 820)))
(assert (= "s" (CharAt var15 187)))
(assert (= "E" (CharAt var54 138)))
(assert (= "Y" (CharAt var29 46)))
(assert (= "}" (CharAt var57 427)))
(assert (= "m" (CharAt var51 934)))
(assert (= "U" (CharAt var25 611)))
(assert (= "k" (CharAt var56 289)))
(assert (= "7" (CharAt var52 432)))
(assert (= "J" (CharAt var56 781)))
(assert (= "N" (CharAt var58 115)))
(assert (= "," (CharAt var0 98)))
(assert (= "*" (CharAt var12 63)))
(assert (= "/" (CharAt var34 461)))
(assert (= "L" (CharAt var10 89)))
(assert (= "L" (CharAt var23 228)))
(assert (= "y" (CharAt var34 263)))
(assert (= "4" (CharAt var0 943)))
(assert (= "k" (CharAt var6 672)))
(assert (= "g" (CharAt var57 990)))
(assert (= "H" (CharAt var37 604)))
(assert (= "6" (CharAt var43 974)))
(assert (= "x" (CharAt var55 323)))
(assert (= "r" (CharAt var59 824)))
(assert (= "#" (CharAt var22 416)))
(assert (= "B" (CharAt var58 421)))
(assert (= "9" (CharAt var17 353)))
(assert (= "[" (CharAt var46 787)))
(assert (= "m" (CharAt var50 83)))
(assert (= "A" (CharAt var47 573)))
(assert (= "Z" (CharAt var55 257)))
(assert (= "F" (CharAt var41 0)))
(assert (= "y" (CharAt var43 127)))
(assert (= "w" (CharAt var26 749)))
(assert (= "p" (CharAt var44 991)))
(assert (= "[" (CharAt var6 260)))
(assert (= ":" (CharAt var2 806)))
(assert (= "2" (CharAt var52 974)))
(assert (= "c" (CharAt var18 722)))
(assert (= "'" (CharAt var56 818)))
(assert (= "g" (CharAt var23 771)))
(assert (= "(" (CharAt var5 322)))
(assert (= "d" (CharAt var6 238)))
(assert (= "B" (CharAt var5 929)))
(assert (= "<" (CharAt var47 992)))
(assert (= "c" (CharAt var51 928)))
(assert (= "3" (CharAt var48 630)))
(assert (= "Y" (CharAt var55 261)))
(assert (= "%" (CharAt var7 79)))
(assert (= "y" (CharAt var3 168)))
(assert (= "\\" (CharAt var56 334)))
(assert (= "8" (CharAt var31 561)))
(assert (= "G" (CharAt var57 806)))
(assert (= "d" (CharAt var28 517)))
(assert (= "w" (CharAt var46 24)))
(assert (= "`" (CharAt var49 572)))
(assert (= "+" (CharAt var12 193)))
(assert (= "*" (CharAt var22 836)))
(assert (= "|" (CharAt var1 872)))
(assert (= "n" (CharAt var37 481)))
(assert (= "x" (CharAt var58 193)))
(assert (= "e" (CharAt var40 336)))
(assert (= "r" (CharAt var27 520)))
(check-sat)